* Signature: 0xec4c67221ae56ed2
NAME lp_typeD_073
OBJSENSE MAX
ROWS
 N  OBJ
 L  c0      
 L  c1      
 G  c2      
 G  c3      
 L  c_key_upper
 G  c_key_lower
 G  _chain_constr_1
 G  _chain_constr_2
 G  _chain_constr_3
 G  _chain_cycle
COLUMNS
    x0        OBJ       6.0086100514031138e-01
    x0        c0        7.8307990880733858e-01
    x0        c1        1.7954955749522463e+00
    x0        c2        8.5772896209652261e-01
    x0        c3        8.1618490223877682e-01
    x0        c_key_upper  1.9026780462564803e+00
    x0        c_key_lower  1.9026780462564803e+00
    x1        OBJ       6.9290555408152854e-01
    x1        c0        1.6191623923172651e+00
    x1        c1        1.7974522617564646e+00
    x1        c2        8.7734981014684843e-01
    x1        c3        7.1966308801271373e-01
    x1        c_key_upper  1.8133875005680493e+00
    x1        c_key_lower  1.8133875005680493e+00
    x2        OBJ       0.557538759511436
    x2        c0        6.1060455650241630e-01
    x2        c1        1.6392944596316172e+00
    x2        c2        7.9609925999414233e-01
    x2        c3        5.0179078651448161e-01
    x2        c_key_upper  1.6185622844445147e+00
    x2        c_key_lower  1.6185622844445147e+00
    x3        OBJ       0.532058445027599
    x3        c0        1.9305255441567359e+00
    x3        c1        5.6397407621431483e-01
    x3        c2        1.78446185573025
    x3        c3        8.8043588508263859e-01
    x3        c_key_upper  1.7758827895571117e+00
    x3        c_key_lower  1.7758827895571117e+00
    x4        OBJ       9.0866639092513990e-01
    x4        c0        1.9245080476145873e+00
    x4        c1        6.8434160816352363e-01
    x4        c2        5.8277186306043638e-01
    x4        c3        1.3724321946214921e+00
    x4        c_key_upper  1.9776818080375045e+00
    x4        c_key_lower  1.9776818080375045e+00
    _chain_var_0  _chain_constr_1  -1
    _chain_var_0  _chain_cycle  1
    _chain_var_1  _chain_constr_1  1
    _chain_var_1  _chain_constr_2  -1
    _chain_var_2  _chain_constr_2  1
    _chain_var_2  _chain_constr_3  -1
    _chain_var_3  _chain_constr_3  1
    _chain_var_3  _chain_cycle  -1
RHS
    RHS1      c0        3.6511725701334115e+01
    RHS1      c1        3.3485835066973053e+01
    RHS1      c2        6.0312360557161355e+00
    RHS1      c3        5.0629580327485364e+00
    RHS1      c_key_upper  4.5440962144318306e+01
    RHS1      c_key_lower  2.2720481072159153e+01
    RHS1      _chain_constr_1  10
    RHS1      _chain_constr_2  10
    RHS1      _chain_constr_3  10
    RHS1      _chain_cycle  10
BOUNDS
 UP BND1      x0        10
 UP BND1      x1        10
 UP BND1      x2        10
 UP BND1      x3        10
 UP BND1      x4        10
 UP BND1      _chain_var_0  100
 UP BND1      _chain_var_1  100
 UP BND1      _chain_var_2  100
 UP BND1      _chain_var_3  100
ENDATA
